c ---- [ banner ] ------------------------------------------------------------
c
c Kissat SAT Solver
c 
c Copyright (c) 2021-2023 Armin Biere University of Freiburg
c Copyright (c) 2019-2021 Armin Biere Johannes Kepler University Linz
c 
c Version 3.1.1 unknown
c gcc (Ubuntu 9.4.0-1ubuntu1~20.04.2) 9.4.0 -W -Wall -O3 -DNDEBUG
c Mon Feb 26 18:18:52 CET 2024 Linux OptiPlex-7080 5.15.0-88-generic x86_64
c
c ---- [ parsing ] -----------------------------------------------------------
c
c opened and reading DIMACS file:
c
c   /home/oliveras/SAT-comp-2023//85240babab8083e1b381e2971d875ab8-satcoin-genesis-UNSAT-17800.cnf
c
c parsed 'p cnf 134781 648806' header
c closing input after reading 14384710 bytes (14 MB)
c finished parsing after 0.22 seconds
c
c ---- [ options ] -----------------------------------------------------------
c
c --seed=1                         (different from default '0')
c
c ---- [ solving ] -----------------------------------------------------------
c
c  seconds switched conflicts    irredundant  variables
c         MB reductions redundant        trail      remaining
c          level restarts    binary         glue
c
c *  0.22 49 0 0 0  0   0   0 51675 596986 0% 0 125485 93%
c {  0.22 49 0 0 0  0   0   0 51675 596986 0% 0 125485 93%
c i  0.22 49 5 0 0  0   1   0 51675 596986 0% 0 125475 93%
c -  0.57 51 349 0 1 275 1002 440 51098 596986 4% 14 125475 93%
c }  0.57 51 349 1 1 275 1002 440 51098 596986 4% 14 125475 93%
c [  0.57 51 0 1 1 275 1002 440 51098 596986 0% 0 125475 93%
c B  0.57 51 0 1 1 275 1002 440 51098 596986 0% 0 125475 93%
c ]  0.84 51 734 2 1 275 1145 577 51103 596986 23% 22 125475 93%
c {  0.84 51 349 2 1 275 1145 577 51103 596986 4% 14 125475 93%
c i  0.88 54 442 2 1 291 1914 1262 51148 596986 3% 13 125473 93%
c -  0.89 54 434 2 2 298 2004 795 51146 596986 3% 13 125473 93%
c }  0.90 54 423 3 2 301 2146 918 51147 596986 4% 13 125473 93%
c [  0.90 54 734 3 2 301 2146 918 51147 596986 23% 22 125473 93%
c W  0.99 57 734 3 2 301 2146 918 51147 596005 23% 22 125473 93%
c ]  1.06 57 679 4 2 301 2195 967 51147 596005 19% 112 125473 93%
c {  1.06 57 423 4 2 301 2195 967 51147 596005 4% 13 125473 93%
c i  1.06 57 428 4 2 301 2201 972 51147 596005 4% 13 125472 93%
c i  1.06 57 431 4 2 301 2203 973 51147 596005 4% 13 125466 93%
c d  5.99 61 339 4 2 452 3378 2058 51622 595460 8% 12 125437 93%
c d  6.01 61 339 4 2 452 3378 2058 51250 595459 8% 12 125251 93%
c
c  seconds   switched conflicts       irredundant   variables
c         MB  reductions   redundant          trail       remaining
c           level restarts        binary          glue
c
c b  6.03 61 339 4 2 452 3378 2058 51250 595459 8% 12 125236 93%
c u  6.06 61 339 4 2 452 3378 2055 51253 595459 8% 12 125236 93%
c v  6.12 61 339 4 2 452 3378 2055 51253 595459 8% 12 125236 93%
c w  6.58 63 339 4 2 452 3378 2156 51584 593999 8% 12 124916 93%
c =  7.01 64 339 4 2 452 3378 2156 56513 592667 8% 12 122528 91%
c d  7.04 64 339 4 2 452 3378 2146 51889 592195 8% 12 122526 91%
c d  7.06 64 339 4 2 452 3378 2146 51861 592195 8% 12 122512 91%
c t  7.10 64 339 4 2 452 3378 2146 47774 592195 8% 12 122512 91%
c b  7.11 64 339 4 2 452 3378 2146 47774 592195 8% 12 122511 91%
c i  7.11 64 339 4 2 452 3378 2146 47774 592195 8% 12 122511 91%
c -  7.13 64 406 4 3 452 3418 1332 47223 592195 8% 12 122511 91%
c }  7.19 64 751 5 3 453 4548 2376 47248 592195 6% 11 122511 91%
c [  7.19 64 679 5 3 453 4548 2376 47248 592195 19% 112 122511 91%
c I  7.19 64 679 5 3 453 4548 2376 47248 592195 19% 112 122511 91%
c -  7.55 66 543 5 4 453 5150 1794 47248 592195 11% 67 122511 91%
c u  8.31 68 532 5 4 455 6749 3369 47257 592187 9% 118 122511 91%
c v  8.43 68 532 5 4 455 6749 3369 47257 592187 9% 118 122511 91%
c w  8.61 68 532 5 4 455 6749 3391 47273 592149 9% 118 122511 91%
c =  8.75 68 532 5 4 455 6749 3391 47283 592149 9% 118 122506 91%
c d  8.78 68 532 5 4 455 6749 3391 47273 592149 9% 118 122506 91%
c
c  seconds   switched conflicts       irredundant    variables
c         MB  reductions   redundant          trail        remaining
c           level restarts        binary          glue
c
c t  8.82 68 532 5 4 455 6749 3391 47252 592149 9% 118 122506 91%
c -  8.90 68 530 5 5 455 7151 1867 47252 592149 8% 117 122506 91%
c B  9.09 68 526 5 5 455 8319 3034 47252 592149 7% 111 122506 91%
c -  9.14 68 495 5 6 456 9389 1907 47255 592149 7% 91 122506 91%
c -  9.40 68 433 5 7 458 11839 2202 47257 592149 6% 72 122506 91%
c ] 11.55 68 399 6 7 459 13404 3740 47258 592149 7% 70 122506 91%
c { 11.55 68 751 6 7 459 13404 3740 47258 592149 6% 11 122506 91%
c u 11.82 68 719 6 7 572 13760 4080 47261 592149 6% 12 122506 91%
c v 11.91 68 719 6 7 572 13760 4079 47262 592149 6% 12 122506 91%
c w 12.21 68 719 6 7 572 13760 4089 47296 592101 6% 12 122505 91%
c t 12.57 68 719 6 7 572 13760 4089 47258 592097 6% 12 122505 91%
c i 12.57 68 719 6 7 572 13760 4089 47258 592097 6% 12 122505 91%
c - 27.37 68 636 6 8 647 14485 2665 47267 592097 14% 12 122505 91%
c s 104.12 68 435 6 8 647 16889 5059 47533 589319 40% 11 122505 91%
c e 105.04 77 435 6 8 647 16889 5059 7081 569168 40% 11 82752 61%
c 2 105.04 77 435 6 8 647 16889 5059 7079 569168 40% 11 82752 61%
c s 105.10 77 435 6 8 647 16889 5059 7158 549540 40% 11 82752 61%
c e 105.22 77 435 6 8 647 16889 5059 7151 549547 40% 11 82750 61%
c ^ 105.22 77 435 6 8 647 16889 5059 7151 549547 40% 11 82750 61%
c - 107.95 73 475 6 9 648 17313 2275 7163 549546 40% 10 82750 61%
c
c  seconds    switched  conflicts      irredundant    variables
c          MB  reductions    redundant          trail      remaining
c            level restarts         binary          glue
c
c } 110.59 73 466 7 9 648 17474 2432 7163 549546 40% 10 82750 61%
c [ 110.59 73 399 7 9 648 17474 2432 7163 549546 7% 70 82750 61%
c W 110.68 78 399 7 9 648 17474 2432 7163 549546 7% 70 82750 61%
c - 121.45 80 367 7 10 650 20313 2959 7163 549546 11% 91 82750 61%
c - 128.20 80 346 7 11 652 23475 3162 7164 549546 12% 95 82750 61%
c u 130.99 80 342 7 11 653 24648 4325 7172 549546 12% 97 82750 61%
c v 131.07 80 342 7 11 653 24648 4325 7172 549546 12% 97 82750 61%
c w 131.68 80 342 7 11 653 24648 8003 7260 545673 12% 97 82745 61%
c = 132.43 80 342 7 11 653 24648 8003 7302 545622 12% 97 82724 61%
c d 132.46 80 342 7 11 653 24648 8000 7316 545565 12% 97 82724 61%
c t 132.50 80 342 7 11 653 24648 8000 7236 545565 12% 97 82724 61%
c i 132.51 80 342 7 11 653 24648 8000 7236 545565 12% 97 82724 61%
c O 133.80 80 341 7 11 653 25003 8354 7237 545565 12% 98 82724 61%
c - 135.92 80 333 7 12 654 26791 6980 7219 545565 12% 96 82724 61%
c - 137.99 80 321 7 13 655 30255 7123 7221 545565 11% 92 82724 61%
c s 152.52 80 315 7 13 657 33399 10245 7246 545505 13% 99 82724 61%
c e 153.01 80 315 7 13 657 33399 10245 4699 549258 13% 99 81265 60%
c s 153.03 80 315 7 13 657 33399 10245 4730 549209 13% 99 81265 60%
c ^ 153.06 80 315 7 13 657 33399 10245 4730 549209 13% 99 81265 60%
c - 153.12 80 314 7 14 657 33860 6725 4732 549209 13% 98 81265 60%
c
c  seconds    switched   conflicts      irredundant    variables
c          MB   reductions    redundant          trail      remaining
c            level  restarts         binary          glue
c
c B 157.72 80 313 7 14 658 34765 7625 4732 549209 14% 99 81265 60%
c - 171.05 80 313 7 15 660 37601 7079 4739 549209 16% 110 81265 60%
c u 174.01 80 313 7 15 661 39322 8769 4743 549209 15% 110 81265 60%
c v 174.05 80 313 7 15 661 39322 8768 4744 549209 15% 110 81265 60%
c w 174.62 80 313 7 15 661 39322 8805 4761 549155 15% 110 81265 60%
c = 175.29 80 313 7 15 661 39322 8805 4771 549112 15% 110 81259 60%
c d 175.32 80 313 7 15 661 39322 8805 4781 549086 15% 110 81259 60%
c t 175.36 80 313 7 15 661 39322 8805 4767 549086 15% 110 81259 60%
c ] 182.29 80 311 8 15 661 40421 9896 4767 549086 16% 113 81259 60%
c { 182.29 80 466 8 15 661 40421 9896 4767 549086 40% 10 81259 60%
c - 193.43 80 430 8 16 687 41473 7787 4769 549086 41% 10 81259 60%
c - 287.17 80 297 8 17 687 45473 8817 4769 549086 59% 10 81259 60%
c } 313.35 80 274 9 17 687 46580 9924 4769 549086 62% 9 81259 60%
c [ 313.35 80 311 9 17 687 46580 9924 4769 549086 16% 113 81259 60%
c W 315.60 80 312 9 17 687 46988 10327 4771 549086 16% 113 81259 60%
c - 328.25 80 308 9 18 689 49597 9496 4771 549086 17% 117 81259 60%
c - 339.14 80 305 9 19 692 53840 9460 4771 549086 17% 118 81259 60%
c - 344.16 82 305 9 20 693 58200 9535 4771 549086 16% 114 81259 60%
c u 344.26 82 305 9 20 693 58224 9559 4771 549086 16% 114 81259 60%
c v 344.34 82 305 9 20 693 58224 9559 4771 549086 16% 114 81259 60%
c
c  seconds    switched   conflicts      irredundant     variables
c          MB   reductions    redundant          trail       remaining
c            level  restarts         binary          glue
c
c w 344.91 82 305 9 20 693 58224 9585 4790 549041 16% 114 81259 60%
c t 345.64 82 305 9 20 693 58224 9585 4772 549041 16% 114 81259 60%
c I 362.49 82 304 9 20 696 61892 13245 4772 549041 17% 121 81259 60%
c - 364.30 82 303 9 21 696 62672 10044 4773 549041 17% 121 81259 60%
c - 384.88 84 301 9 22 700 67254 10259 4774 549041 19% 123 81259 60%
c e 385.47 62 302 9 22 700 69158 12136 4534 549597 18% 120 81086 60%
c s 385.47 62 302 9 22 700 69158 12136 4536 549379 18% 120 81086 60%
c e 385.49 62 302 9 22 700 69158 12136 4536 549375 18% 120 81085 60%
c ^ 385.49 62 302 9 22 700 69158 12136 4536 549375 18% 120 81085 60%
c - 400.18 74 301 9 23 701 71944 10055 4537 549375 19% 123 81085 60%
c - 400.58 74 300 9 24 701 76739 10227 4539 549375 17% 117 81085 60%
c B 401.48 74 298 9 24 702 79695 13168 4539 549375 16% 113 81085 60%
c u 406.47 74 298 9 24 703 81479 14942 4541 549375 16% 113 81085 60%
c v 406.51 74 298 9 24 703 81479 14942 4541 549375 16% 113 81085 60%
c w 407.12 76 298 9 24 703 81479 15058 4557 549243 16% 113 81085 60%
c = 407.81 76 298 9 24 703 81479 15058 4563 549243 16% 113 81082 60%
c d 407.84 76 298 9 24 703 81479 15054 4557 549243 16% 113 81082 60%
c t 407.89 76 298 9 24 703 81479 15054 4548 549243 16% 113 81082 60%
c - 408.17 76 298 9 25 704 81639 10611 4548 549243 16% 113 81082 60%
c - 414.44 78 296 9 26 707 86639 11009 4550 549243 16% 110 81082 60%
c
c  seconds     switched   conflicts       irredundant     variables
c          MB    reductions     redundant          trail       remaining
c            level   restarts          binary          glue
c
c ] 427.26 78 297 10 26 708 88590 12957 4550 549243 17% 114 81082 60%
c { 427.26 78 274 10 26 708 88590 12957 4550 549243 62% 9 81082 60%
c - 465.77 78 313 10 27 813 91738 12195 4567 549243 60% 9 81082 60%
c - 554.94 78 292 10 28 825 96935 13707 4582 549243 63% 9 81082 60%
c } 560.10 78 288 11 28 825 97217 13985 4584 549243 63% 9 81082 60%
c [ 560.10 78 297 11 28 825 97217 13985 4584 549243 17% 114 81082 60%
c W 578.79 78 296 11 28 827 100606 17366 4584 549243 17% 118 81082 60%
c - 587.39 78 296 11 29 828 102227 14175 4586 549243 18% 120 81082 60%
c - 601.06 78 294 11 30 831 107613 13993 4588 549243 18% 121 81082 60%
c u 601.36 78 293 11 30 831 109253 15614 4598 549243 17% 119 81082 60%
c v 601.51 78 293 11 30 831 109253 15613 4599 549243 17% 119 81082 60%
c w 602.17 78 293 11 30 831 109253 15658 4613 549184 17% 119 81082 60%
c t 602.88 78 293 11 30 831 109253 15658 4590 549184 17% 119 81082 60%
c - 624.20 78 292 11 31 834 113090 14382 4590 549184 18% 123 81082 60%
c - 636.77 80 291 11 32 838 118657 14645 4592 549184 18% 122 81082 60%
c - 659.08 82 291 11 33 839 124313 14668 4593 549184 19% 123 81082 60%
c O 659.12 82 291 11 33 839 124831 15183 4593 549184 19% 122 81082 60%
c s 666.49 82 289 11 33 839 126754 17013 4596 549179 19% 122 81082 60%
c e 667.16 82 289 11 33 839 126754 17013 4299 570509 19% 122 74987 56%
c s 667.23 82 289 11 33 839 126754 17013 4311 570052 19% 122 74987 56%
c
c  seconds     switched   conflicts        irredundant     variables
c          MB    reductions      redundant          trail       remaining
c            level   restarts           binary          glue
c
c e 667.26 82 289 11 33 839 126754 17013 4305 570070 19% 122 74982 56%
c ^ 667.26 82 289 11 33 839 126754 17013 4305 570070 19% 122 74982 56%
c - 667.64 82 289 11 34 839 130058 12000 4305 570070 18% 119 74982 56%
c ] 672.77 84 289 12 34 840 130859 12801 4305 570070 18% 119 74982 56%
c { 672.77 84 288 12 34 840 130859 12801 4305 570070 63% 9 74982 56%
c - 747.05 86 280 12 35 1651 135888 13534 4320 570065 63% 9 74982 56%
c u 852.86 86 251 12 35 1892 141711 19267 4352 570063 65% 9 74982 56%
c v 853.80 86 251 12 35 1892 141711 18578 5041 570063 65% 9 74982 56%
c w 854.52 86 251 12 35 1892 141711 18701 5146 569835 65% 9 74982 56%
c = 855.09 86 251 12 35 1892 141711 18701 5148 569835 65% 9 74981 56%
c d 855.12 86 251 12 35 1892 141711 18701 5146 569835 65% 9 74981 56%
c t 855.16 86 251 12 35 1892 141711 18701 4370 569835 65% 9 74981 56%
c - 856.72 86 253 12 36 1913 141804 14954 4370 569835 65% 9 74981 56%
c } 869.04 86 248 13 36 1984 142339 15489 4370 569835 66% 9 74981 56%
c [ 869.04 86 289 13 36 1984 142339 15489 4370 569835 18% 119 74981 56%
c - 885.00 86 288 13 37 1988 147804 15655 4371 569835 18% 120 74981 56%
c B 903.68 88 286 13 37 1990 152571 20404 4374 569835 19% 122 74981 56%
c - 910.70 88 286 13 38 1990 153888 15754 4374 569835 19% 123 74981 56%
c - 931.37 88 285 13 39 1995 160053 15832 4374 569835 19% 124 74981 56%
c - 955.68 88 284 13 40 1997 166297 16045 4374 569835 20% 127 74981 56%
c
c  seconds     switched    conflicts        irredundant     variables
c          MB    reductions       redundant          trail       remaining
c            level    restarts           binary          glue
c
c - 986.30 88 283 13 41 1998 172622 16389 4377 569835 20% 131 74981 56%
c - 1011.57 88 281 13 42 2001 179026 16856 4379 569835 21% 133 74981 56%
c u 1012.81 88 281 13 42 2001 179156 16965 4400 569835 21% 133 74981 56%
c v 1012.96 88 281 13 42 2001 179156 16960 4405 569835 21% 133 74981 56%
c w 1013.64 88 281 13 42 2001 179156 17014 4413 569773 21% 133 74981 56%
c = 1014.21 88 281 13 42 2001 179156 17014 4415 569773 21% 133 74980 56%
c d 1014.25 88 281 13 42 2001 179156 17013 4391 569773 21% 133 74980 56%
c t 1014.29 88 281 13 42 2001 179156 17013 4381 569773 21% 133 74980 56%
c W 1029.02 88 280 13 42 2005 184022 21862 4381 569773 21% 132 74980 56%
c - 1029.15 88 280 13 43 2005 185506 17265 4381 569773 20% 130 74980 56%
c ] 1032.16 88 280 14 43 2006 188130 19870 4381 569773 20% 129 74980 56%
c { 1032.16 88 248 14 43 2006 188130 19870 4381 569773 66% 9 74980 56%
c i 1046.59 88 244 14 43 2060 188828 20554 4390 569773 66% 9 74979 56%
c i 1067.11 88 245 14 43 2106 190393 22083 4399 569773 65% 9 74978 56%
c - 1096.80 88 237 14 44 2446 192063 18186 4376 569773 66% 9 74978 56%
c - 1221.20 88 203 14 45 2592 198696 20906 4380 569773 68% 9 74978 56%
c i 1279.67 88 189 14 45 2592 201456 23654 4385 569773 69% 8 74976 56%
c } 1299.71 88 201 15 45 2664 202845 25022 4390 569773 69% 8 74976 56%
c [ 1299.71 88 280 15 45 2664 202845 25022 4390 569773 20% 129 74976 56%
c - 1307.65 88 280 15 46 2666 205405 19701 4383 569773 20% 130 74976 56%
c
c   seconds     switched    conflicts        irredundant     variables
c           MB    reductions       redundant          trail       remaining
c             level    restarts           binary          glue
c
c s 1327.28 88 280 15 46 2669 209045 23327 4402 569679 20% 133 74976 56%
c e 1327.90 66 280 15 46 2669 209045 23327 3838 575561 20% 133 74156 55%
c s 1327.92 66 280 15 46 2669 209045 23327 3863 574668 20% 133 74156 55%
c e 1327.96 66 280 15 46 2669 209045 23327 3830 574784 20% 133 74141 55%
c ^ 1327.96 66 280 15 46 2669 209045 23327 3830 574784 20% 133 74141 55%
c - 1343.27 82 280 15 47 2670 212187 17526 3840 574774 21% 134 74141 55%
c - 1373.50 82 279 15 48 2673 219043 18543 3841 574774 21% 137 74141 55%
c I 1374.93 82 278 15 48 2674 219373 18872 3841 574774 21% 137 74141 55%
c d 1386.02 82 278 15 48 2676 221543 21030 3837 574774 22% 138 74139 55%
c u 1386.19 84 278 15 48 2676 221543 20998 3866 574774 22% 138 74138 55%
c v 1386.61 86 278 15 48 2676 221543 20993 3871 574774 22% 138 74138 55%
c w 1387.48 86 278 15 48 2676 221543 21196 3966 574431 22% 138 74137 55%
c = 1388.35 86 278 15 48 2676 221543 21196 3974 574431 22% 138 74133 55%
c d 1388.39 86 278 15 48 2676 221543 21196 3950 574426 22% 138 74133 55%
c t 1388.44 86 278 15 48 2676 221543 21196 3874 574426 22% 138 74133 55%
c i 1388.44 86 278 15 48 2676 221543 21196 3874 574426 22% 138 74133 55%
c - 1411.35 86 277 15 49 2677 225971 19296 3869 574426 22% 140 74133 55%
c - 1424.80 86 276 15 50 2678 232972 19539 3869 574426 21% 139 74133 55%
c - 1442.64 86 276 15 51 2682 240044 19706 3869 574426 21% 138 74133 55%
c - 1479.08 88 276 15 52 2685 247185 19986 3870 574426 22% 142 74133 55%
c
c   seconds     switched    conflicts        irredundant     variables
c           MB    reductions       redundant          trail       remaining
c             level    restarts           binary          glue
c
c - 1506.66 88 276 15 53 2691 254396 20151 3870 574426 22% 144 74133 55%
c ] 1521.77 88 276 16 53 2692 258132 23876 3870 574426 22% 145 74133 55%
c { 1521.77 88 201 16 53 2692 258132 23876 3870 574426 69% 8 74133 55%
c - 1591.38 88 188 16 54 2861 261676 22499 3874 574426 70% 8 74133 55%
c i 1633.11 88 180 16 54 2861 263595 24408 3881 574426 71% 8 74130 55%
c i 1674.52 88 172 16 54 2890 266420 27187 3900 574424 70% 8 74129 55%
c i 1692.14 88 176 16 54 2911 267877 28620 3916 574424 69% 8 74126 55%
c - 1699.48 88 181 16 55 2912 269024 21853 3907 574424 68% 8 74126 55%
c d 1700.17 88 181 16 55 2912 269055 21843 4002 574065 68% 8 74123 55%
c d 1700.19 88 181 16 55 2912 269055 21500 3958 574006 68% 8 74105 55%
c b 1700.21 88 181 16 55 2912 269055 21500 3958 574006 68% 8 74104 55%
c u 1700.62 88 181 16 55 2912 269055 21092 4290 574006 68% 8 74098 55%
c v 1704.09 88 181 16 55 2912 269055 20501 4490 574006 68% 8 74098 55%
c w 1704.77 88 181 16 55 2912 269055 20677 4820 573289 68% 8 74096 55%
c = 1705.55 88 181 16 55 2912 269055 20677 4951 573214 68% 8 74030 55%
c d 1705.58 88 181 16 55 2912 269055 20513 4729 573208 68% 8 74030 55%
c t 1705.63 88 181 16 55 2912 269055 20513 4007 573208 68% 8 74030 55%
c i 1705.63 88 181 16 55 2912 269055 20513 4007 573208 68% 8 74030 55%
c i 1727.21 90 167 16 55 2912 275825 27080 4013 573208 61% 8 74029 55%
c i 1730.90 90 171 16 55 2947 276114 27330 4020 573208 61% 8 74028 55%
c
c   seconds     switched    conflicts        irredundant   variables
c           MB    reductions       redundant          trail     remaining
c             level    restarts           binary         glue
c
c i 1734.76 90 170 16 55 2947 276335 27538 4028 573208 61% 8 74022 55%
c - 1735.80 90 170 16 56 2947 276440 20073 4064 573208 61% 8 74022 55%
c i 1735.91 90 169 16 56 2947 276450 20079 4067 573208 61% 8 74015 55%
c } 1735.97 90 169 17 56 2947 276470 20099 4067 573208 61% 8 74015 55%
c [ 1735.97 90 276 17 56 2947 276470 20099 4067 573208 22% 145 74015 55%
c B 1735.97 90 276 17 56 2947 276470 20099 4067 573208 22% 145 74015 55%
c - 1759.38 90 276 17 57 2952 283924 20441 4074 573208 22% 146 74015 55%
c - 1776.05 90 275 17 58 2956 291474 20884 4074 573208 22% 145 74015 55%
c - 1790.64 90 274 17 59 2960 299089 21207 4074 573208 21% 143 74015 55%
c - 1813.92 90 273 17 60 2961 306771 21354 4074 573207 21% 142 74015 55%
c - 1836.01 90 276 17 61 2966 314516 21707 4076 573207 21% 141 74015 55%
c 2 1841.33 92 282 17 61 2968 318091 25259 3969 573207 20% 140 74015 55%
c s 1841.35 92 282 17 61 2968 318091 25259 4025 572225 20% 140 74015 55%
c e 1842.70 100 282 17 61 2968 318091 25259 3385 738192 20% 140 59807 44%
c 2 1842.70 100 282 17 61 2968 318091 25259 3372 738192 20% 140 59807 44%
c s 1842.99 103 282 17 61 2968 318091 25259 3404 736239 20% 140 59807 44%
c e 1843.08 103 282 17 61 2968 318091 25259 3373 736735 20% 140 59764 44%
c ! 1843.08 103 282 17 61 2968 318091 25259 3373 736735 20% 140 59764 44%
c W 1854.11 110 283 17 61 2968 320182 6957 3374 736735 21% 139 59764 44%
c b 1854.24 110 285 17 61 2969 321699 8454 3464 736655 20% 137 59761 44%
c
c   seconds      switched    conflicts       irredundant     variables
c            MB    reductions      redundant          trail       remaining
c              level    restarts          binary          glue
c
c u 1854.34 112 285 17 61 2969 321699 8422 3494 736655 20% 137 59760 44%
c v 1854.40 112 285 17 61 2969 321699 8422 3494 736655 20% 137 59760 44%
c w 1855.85 106 285 17 61 2969 321699 9357 3882 735158 20% 137 59759 44%
c = 1856.93 106 285 17 61 2969 321699 9357 4017 735001 20% 137 59688 44%
c d 1856.99 106 285 17 61 2969 321699 9329 3780 734999 20% 137 59688 44%
c t 1857.05 106 285 17 61 2969 321699 9329 3468 734999 20% 137 59688 44%
c i 1857.05 106 285 17 61 2969 321699 9329 3468 734999 20% 137 59688 44%
c - 1859.78 105 285 17 62 2969 322327 6823 3427 734999 21% 137 59688 44%
c - 1883.29 107 292 17 63 2975 330201 8621 3429 734999 20% 133 59688 44%
c ] 1911.43 107 292 18 63 2976 337231 15600 3430 734999 21% 132 59688 44%
c { 1911.43 107 169 18 63 2976 337231 15600 3430 734999 61% 8 59688 44%
c - 1912.15 107 170 18 64 2977 338139 9486 3433 734996 60% 8 59688 44%
c i 1915.75 109 167 18 64 2977 338980 10214 3439 734992 60% 8 59687 44%
c i 1916.98 109 168 18 64 2977 339459 10662 3448 734992 59% 8 59686 44%
c i 1917.31 109 168 18 64 2977 339503 10695 3453 734992 59% 8 59685 44%
c i 1917.56 109 168 18 64 2977 339527 10714 3457 734992 59% 8 59661 44%
c i 1917.62 109 168 18 64 2977 339532 10716 3459 734992 59% 8 59654 44%
c i 1917.66 109 168 18 64 2977 339538 10714 3462 734992 59% 8 59632 44%
c } 1917.69 109 168 18 64 2977 339541 10714 3463 734992 59% 8 68 0%
c 0 1917.69 109 168 18 64 2977 339541 10714 3463 734992 59% 8 68 0%
c
c ---- [ result ] ------------------------------------------------------------
c
s UNSATISFIABLE
c
c ---- [ profiling ] ---------------------------------------------------------
c
c        1878.99   97.98 %  search
c        1042.49   54.36 %  focused
c         836.50   43.62 %  stable
c          38.49    2.01 %  simplify
c          25.38    1.32 %  probe
c          15.36    0.80 %  vivify
c           8.13    0.42 %  sweep
c           7.40    0.39 %  walking
c           5.70    0.30 %  eliminate
c           1.51    0.08 %  substitute
c           0.96    0.05 %  reduce
c           0.67    0.03 %  subsume
c           0.25    0.01 %  transitive
c           0.21    0.01 %  parse
c           0.14    0.01 %  backbone
c           0.04    0.00 %  warmup
c =============================================
c        1917.69  100.00 %  total
c
c ---- [ statistics ] --------------------------------------------------------
c
c chronological:                         1177                0 %  conflicts
c conflicts:                           339541              177.06 per second
c decisions:                          1147352                3.38 per conflict
c eliminated:                           62574               46 %  variables
c jumped_reasons:                    18613973                0 %  propagations
c propagations:                    6618481610          3451267    per second
c queue_decisions:                     260555               23 %  decision
c random_decisions:                    472462               41 %  decision
c random_sequences:                        44             7717    interval
c reductions:                              64             5305    interval
c rephased:                                17            19973    interval
c restarts:                              2977              114.05 interval
c score_decisions:                     414335               36 %  decision
c strengthened:                         16100                0 %  checks
c substituted:                           2754                2 %  variables
c subsumed:                             25837                0 %  checks
c switched:                                18            18863    interval
c vivified:                             20082                0 %  checks
c vivify_checks:                      6444602           495739    per vivify
c vivify_units:                            39                0 %  variables
c walk_improved:                            6              100 %  walks
c walks:                                    6            56590    interval
c
c ---- [ resources ] ---------------------------------------------------------
c
c maximum-resident-set-size:        119681024 bytes        114 MB
c process-time:                        31m 58s            1917.69 seconds
c
c ---- [ shutting down ] -----------------------------------------------------
c
c exit 20
